experiment/data/hgs-res/Vrp-Set-B-n50/Vrp-Set-B-n50-hgs/1.hgs1.vrp
NAME : 1
COMMENT : CVRP Instance
TYPE : CVRP
DIMENSION : 50
EDGE_WEIGHT_TYPE : EUC_2D
CAPACITY : 100
NODE_COORD_SECTION
1	8.0	12.0
2	63.0	77.0
3	19.0	10.0
4	39.0	49.0
5	86.0	5.0
6	96.0	64.0
7	34.0	25.0
8	44.0	15.0
9	58.0	90.0
10	49.0	21.0
11	43.0	57.0
12	52.0	28.0
13	47.0	22.0
14	40.0	50.0
15	44.0	34.0
16	0.0	70.0
17	56.0	30.0
18	60.0	98.0
19	103.0	0.0
20	105.0	70.0
21	45.0	25.0
22	64.0	82.0
23	44.0	50.0
24	44.0	53.0
25	59.0	27.0
26	54.0	16.0
27	92.0	11.0
28	46.0	22.0
29	98.0	74.0
30	103.0	72.0
31	44.0	29.0
32	39.0	30.0
33	97.0	71.0
34	49.0	22.0
35	22.0	13.0
36	44.0	58.0
37	50.0	25.0
38	46.0	21.0
39	44.0	50.0
40	51.0	66.0
41	28.0	12.0
42	50.0	59.0
43	61.0	92.0
44	52.0	25.0
45	21.0	16.0
46	51.0	61.0
47	46.0	51.0
48	91.0	13.0
49	25.0	13.0
50	53.0	22.0
DEMAND_SECTION
1	0
2	14
3	3
4	5
5	9
6	69
7	13
8	25
9	17
10	12
11	12
12	10
13	2
14	23
15	15
16	16
17	26
18	12
19	12
20	26
21	10
22	22
23	4
24	16
25	8
26	23
27	2
28	24
29	12
30	24
31	4
32	19
33	21
34	7
35	15
36	14
37	18
38	7
39	20
40	18
41	2
42	21
43	21
44	3
45	5
46	20
47	16
48	25
49	3
50	10
DEPOT_SECTION
1
-1
EOF
