experiment/data/hgs-res/Vrp-Set-B-n50/Vrp-Set-B-n50-hgs/1.hgs1.log
=========== Algorithm Parameters =================
---- nbGranular        is set to 20
---- mu                is set to 25
---- lambda            is set to 40
---- nbElite           is set to 4
---- nbClose           is set to 5
---- targetFeasible    is set to 0.2
---- seed              is set to 1234
---- nbIter            is set to 20000
---- timeLimit         is set to 0
---- useSwapStar       is set to 1
==================================================
----- READING INSTANCE: baseline_results/cvrp_hgs/Vrp-Set-B-n50/Vrp-Set-B-n50-hgs/1.hgs1.vrp
----- FLEET SIZE WAS NOT SPECIFIED: DEFAULT INITIALIZATION TO 13 VEHICLES
----- INSTANCE SUCCESSFULLY LOADED WITH 49 CLIENTS AND 13 VEHICLES
----- BUILDING INITIAL POPULATION
----- STARTING GENETIC ALGORITHM
It      0      2 | T(s) 0.07 | Feas 39 1315.47 1330.13 | Inf 60 1237.37 1239.57 | Div 0.51 0.30 | Feas 0.00 1.00 | Pen 2.17 0.85
It    500    502 | T(s) 0.31 | Feas 55 1315.47 1323.38 | Inf 61 1295.06 1305.81 | Div 0.49 0.35 | Feas 0.15 1.00 | Pen 5.39 0.38
It   1000   1002 | T(s) 0.53 | Feas 37 1315.47 1321.82 | Inf 47 1296.03 1304.49 | Div 0.49 0.35 | Feas 0.21 1.00 | Pen 5.50 0.17
It   1500   1502 | T(s) 0.75 | Feas 50 1315.47 1318.27 | Inf 31 1288.61 1299.46 | Div 0.35 0.39 | Feas 0.17 1.00 | Pen 4.67 0.10
It   2000    366 | T(s) 0.96 | Feas 54 1315.38 1318.68 | Inf 48 1282.30 1289.53 | Div 0.40 0.32 | Feas 0.18 1.00 | Pen 3.97 0.10
It   2500    866 | T(s) 1.18 | Feas 62 1315.38 1316.26 | Inf 65 1282.30 1288.37 | Div 0.25 0.31 | Feas 0.23 1.00 | Pen 3.97 0.10
It   3000   1366 | T(s) 1.40 | Feas 54 1315.38 1316.86 | Inf 43 1276.94 1283.68 | Div 0.31 0.34 | Feas 0.23 1.00 | Pen 3.38 0.10
It   3500   1866 | T(s) 1.62 | Feas 61 1315.38 1317.01 | Inf 37 1276.94 1281.83 | Div 0.30 0.31 | Feas 0.18 1.00 | Pen 3.38 0.10
It   4000   2366 | T(s) 1.83 | Feas 42 1315.38 1317.13 | Inf 29 1283.74 1293.83 | Div 0.32 0.40 | Feas 0.22 1.00 | Pen 4.13 0.10
It   4500   2866 | T(s) 2.04 | Feas 56 1315.38 1316.26 | Inf 37 1278.17 1285.41 | Div 0.25 0.34 | Feas 0.25 1.00 | Pen 3.51 0.10
It   5000   3366 | T(s) 2.26 | Feas 40 1315.38 1316.80 | Inf 63 1278.80 1282.53 | Div 0.31 0.27 | Feas 0.19 1.00 | Pen 3.58 0.10
It   5500   3866 | T(s) 2.49 | Feas 50 1315.38 1316.74 | Inf 40 1273.96 1277.79 | Div 0.28 0.30 | Feas 0.22 1.00 | Pen 3.05 0.10
It   6000   4366 | T(s) 2.70 | Feas 38 1315.38 1317.18 | Inf 32 1274.51 1285.07 | Div 0.35 0.40 | Feas 0.16 1.00 | Pen 3.11 0.10
It   6500   4866 | T(s) 2.93 | Feas 26 1315.38 1318.52 | Inf 51 1275.07 1279.93 | Div 0.43 0.30 | Feas 0.30 1.00 | Pen 3.17 0.10
It   7000   5366 | T(s) 3.15 | Feas 26 1315.38 1318.82 | Inf 38 1281.46 1290.30 | Div 0.46 0.36 | Feas 0.18 1.00 | Pen 3.88 0.10
It   7500   5866 | T(s) 3.35 | Feas 48 1315.38 1316.80 | Inf 53 1281.46 1287.26 | Div 0.30 0.31 | Feas 0.25 1.00 | Pen 3.88 0.10
It   8000   6366 | T(s) 3.56 | Feas 60 1315.38 1316.24 | Inf 40 1282.15 1289.61 | Div 0.25 0.34 | Feas 0.30 1.00 | Pen 3.96 0.10
It   8500   6866 | T(s) 3.77 | Feas 34 1315.38 1317.52 | Inf 62 1277.42 1283.08 | Div 0.39 0.31 | Feas 0.11 1.00 | Pen 3.43 0.10
It   9000   7366 | T(s) 3.99 | Feas 25 1315.38 1320.28 | Inf 54 1284.33 1292.96 | Div 0.46 0.35 | Feas 0.20 1.00 | Pen 4.20 0.10
It   9500   7866 | T(s) 4.21 | Feas 26 1315.38 1319.56 | Inf 65 1278.67 1281.68 | Div 0.43 0.25 | Feas 0.23 1.00 | Pen 3.57 0.10
It  10000   8366 | T(s) 4.42 | Feas 41 1315.38 1317.09 | Inf 44 1273.85 1277.17 | Div 0.33 0.26 | Feas 0.26 1.00 | Pen 3.03 0.10
It  10500   8866 | T(s) 4.66 | Feas 63 1315.38 1316.46 | Inf 40 1279.96 1288.89 | Div 0.26 0.36 | Feas 0.15 1.00 | Pen 3.71 0.10
It  11000   9366 | T(s) 4.88 | Feas 29 1315.38 1317.54 | Inf 27 1276.10 1298.17 | Div 0.40 0.49 | Feas 0.12 1.00 | Pen 3.28 0.10
It  11500   9866 | T(s) 5.10 | Feas 59 1315.38 1316.23 | Inf 57 1282.01 1288.11 | Div 0.26 0.30 | Feas 0.21 1.00 | Pen 3.94 0.10
It  12000  10366 | T(s) 5.33 | Feas 27 1315.38 1317.18 | Inf 33 1277.29 1291.29 | Div 0.38 0.42 | Feas 0.24 1.00 | Pen 3.42 0.10
It  12500  10866 | T(s) 5.55 | Feas 62 1315.38 1315.92 | Inf 50 1273.20 1275.90 | Div 0.23 0.26 | Feas 0.26 1.00 | Pen 2.96 0.10
It  13000  11366 | T(s) 5.77 | Feas 26 1315.38 1317.15 | Inf 57 1284.93 1289.41 | Div 0.35 0.27 | Feas 0.15 1.00 | Pen 4.26 0.10
It  13500  11866 | T(s) 5.99 | Feas 31 1315.38 1317.38 | Inf 29 1274.28 1281.80 | Div 0.34 0.37 | Feas 0.18 1.00 | Pen 3.08 0.10
It  14000  12366 | T(s) 6.21 | Feas 49 1315.38 1316.56 | Inf 53 1275.40 1278.68 | Div 0.29 0.27 | Feas 0.20 1.00 | Pen 3.21 0.10
It  14500  12866 | T(s) 6.44 | Feas 38 1315.38 1316.36 | Inf 39 1271.56 1286.89 | Div 0.26 0.45 | Feas 0.27 1.00 | Pen 2.78 0.10
It  15000  13366 | T(s) 6.65 | Feas 58 1315.38 1316.34 | Inf 57 1272.58 1277.29 | Div 0.27 0.36 | Feas 0.19 1.00 | Pen 2.89 0.10
It  15500  13866 | T(s) 6.87 | Feas 38 1315.38 1316.56 | Inf 50 1277.78 1285.53 | Div 0.30 0.33 | Feas 0.21 1.00 | Pen 3.47 0.10
It  16000  14366 | T(s) 7.08 | Feas 50 1315.38 1316.48 | Inf 35 1278.40 1285.84 | Div 0.28 0.33 | Feas 0.21 1.00 | Pen 3.54 0.10
It  16500  14866 | T(s) 7.29 | Feas 43 1315.38 1316.46 | Inf 33 1279.04 1287.92 | Div 0.28 0.37 | Feas 0.21 1.00 | Pen 3.61 0.10
It  17000  15366 | T(s) 7.50 | Feas 50 1315.38 1316.25 | Inf 46 1270.50 1272.71 | Div 0.26 0.25 | Feas 0.26 1.00 | Pen 2.66 0.10
It  17500  15866 | T(s) 7.73 | Feas 48 1315.38 1316.48 | Inf 51 1276.01 1292.47 | Div 0.29 0.42 | Feas 0.10 1.00 | Pen 3.26 0.10
It  18000  16366 | T(s) 7.95 | Feas 48 1315.38 1316.42 | Inf 48 1275.86 1281.02 | Div 0.28 0.30 | Feas 0.23 1.00 | Pen 3.26 0.10
It  18500  16866 | T(s) 8.17 | Feas 28 1315.38 1316.97 | Inf 32 1271.96 1278.29 | Div 0.36 0.36 | Feas 0.26 1.00 | Pen 2.82 0.10
It  19000  17366 | T(s) 8.41 | Feas 51 1315.38 1316.29 | Inf 42 1283.14 1290.79 | Div 0.26 0.32 | Feas 0.13 1.00 | Pen 4.06 0.10
It  19500  17866 | T(s) 8.68 | Feas 27 1315.38 1317.19 | Inf 56 1273.52 1276.48 | Div 0.37 0.27 | Feas 0.29 1.00 | Pen 3.00 0.10
It  20000  18366 | T(s) 8.90 | Feas 33 1315.38 1316.61 | Inf 44 1278.91 1284.48 | Div 0.30 0.30 | Feas 0.25 1.00 | Pen 3.59 0.10
It  20500  18866 | T(s) 9.10 | Feas 54 1315.38 1316.00 | Inf 64 1274.05 1278.12 | Div 0.23 0.29 | Feas 0.17 1.00 | Pen 3.06 0.10
It  21000  19366 | T(s) 9.32 | Feas 48 1315.38 1316.43 | Inf 65 1286.15 1288.10 | Div 0.28 0.23 | Feas 0.15 1.00 | Pen 4.40 0.10
It  21500  19866 | T(s) 9.53 | Feas 52 1315.38 1316.70 | Inf 51 1286.95 1292.68 | Div 0.28 0.30 | Feas 0.20 1.00 | Pen 4.49 0.10
----- GENETIC ALGORITHM FINISHED AFTER 21636 ITERATIONS. TIME SPENT: 9.59104
----- WRITING BEST SOLUTION IN : baseline_results/cvrp_hgs/Vrp-Set-B-n50/Vrp-Set-B-n50-hgs/1.hgs1.tour
