experiment/data/hgs-res/Vrp-Set-B-n50/Vrp-Set-B-n50-hgs/1.hgs1.tour
Route #1: 34 48 7 40 2
Route #2: 25 4 18 26 47 24 11 20
Route #3: 37 27 12 33 9 49 43 36 6
Route #4: 16 5 30
Route #5: 1 28 29 19 32
Route #6: 13 38 46 14 31 44
Route #7: 3 35 39 45 41 23 22
Route #8: 10 21 8 42 17 15
Cost 1315.38
